PARAMETER_FILE = even/LKH_uncomplete_graph/x10/de/par/random45.par
PROBLEM_FILE = even/LKH_uncomplete_graph/x10/de/mat/random45.tsp
Successes/Runs = 0/10
Cost.min = 527, Cost.avg = 527.00, Cost.max = 527
Gap.min = 0.0000%, Gap.avg = 0.0000%, Gap.max = 0.0000%
Trials.min = 1000, Trials.avg = 1000.0, Trials.max = 1000
Time.min = 0.17 sec., Time.avg = 0.19 sec., Time.max = 0.23 sec.
Time.total = 1.92 sec.
请按任意键继续. . . 
